out/bwp_10_11_1_lp.out
5
0 -0    0 0
3 -0    3 0
4 -0    4 0
5 0    5 0
6 0    6 0
7 -0    9 1
-0 1    2 2
8 2    9 4
3 1    6 2
-0 3    3 4
4 3    7 4
