out/bwp_10_11_1_lp.log
Tried aggregator 2 times.
MIP Presolve eliminated 16 rows and 6 columns.
MIP Presolve modified 240 coefficients.
Aggregator did 240 substitutions.
Reduced MIP has 1223 rows, 1109 columns, and 3024 nonzeros.
Reduced MIP has 666 binaries, 23 generals, 0 SOSs, and 380 indicators.
Presolve time = 0.01 sec. (3.31 ticks)
Found incumbent of value 26.000000 after 0.02 sec. (6.16 ticks)
Probing fixed 48 vars, tightened 172 bounds.
Probing time = 0.04 sec. (11.95 ticks)
Tried aggregator 3 times.
MIP Presolve eliminated 77 rows and 74 columns.
MIP Presolve modified 516 coefficients.
Aggregator did 341 substitutions.
Reduced MIP has 805 rows, 694 columns, and 2219 nonzeros.
Reduced MIP has 498 binaries, 169 generals, 0 SOSs, and 348 indicators.
Presolve time = 0.01 sec. (4.73 ticks)
Probing time = 0.01 sec. (3.68 ticks)
Tried aggregator 1 time.
Reduced MIP has 805 rows, 694 columns, and 2219 nonzeros.
Reduced MIP has 498 binaries, 169 generals, 0 SOSs, and 348 indicators.
Presolve time = 0.00 sec. (1.08 ticks)
Probing time = 0.01 sec. (2.21 ticks)
Clique table members: 58.
MIP emphasis: balance optimality and feasibility.
MIP search method: dynamic search.
Parallel mode: deterministic, using up to 4 threads.
Root relaxation solution time = 0.00 sec. (2.05 ticks)

        Nodes                                         Cuts/
   Node  Left     Objective  IInf  Best Integer    Best Bound    ItCnt     Gap

*     0+    0                           26.0000        5.0000      269   80.77%
      0     0        5.0000   256       26.0000        5.0000      269   80.77%
      0     0        5.0000    99       26.0000      Cuts: 33      314   80.77%
      0     0        5.0000   164       26.0000      Cuts: 88      381   80.77%
      0     0        5.0000   160       26.0000      Cuts: 11      397   80.77%
      0     0        5.0000   143       26.0000      Cuts: 44      448   80.77%
      0     0        5.0000   138       26.0000      Cuts: 46      471   80.77%
*     0+    0                            6.0000        5.0000      471   16.67%

Repeating presolve.
Tried aggregator 2 times.
MIP Presolve eliminated 282 rows and 226 columns.
MIP Presolve modified 353 coefficients.
Aggregator did 3 substitutions.
Reduced MIP has 627 rows, 465 columns, and 1712 nonzeros.
Reduced MIP has 273 binaries, 165 generals, 0 SOSs, and 241 indicators.
Presolve time = 0.01 sec. (2.32 ticks)
Probing fixed 0 vars, tightened 54 bounds.
Probing time = 0.01 sec. (2.42 ticks)
Tried aggregator 2 times.
MIP Presolve eliminated 107 rows and 3 columns.
MIP Presolve modified 241 coefficients.
Aggregator did 33 substitutions.
Reduced MIP has 504 rows, 429 columns, and 1467 nonzeros.
Reduced MIP has 270 binaries, 138 generals, 0 SOSs, and 224 indicators.
Presolve time = 0.00 sec. (1.29 ticks)
Probing time = 0.00 sec. (1.67 ticks)
Tried aggregator 2 times.
MIP Presolve eliminated 17 rows and 0 columns.
MIP Presolve modified 4 coefficients.
Aggregator did 11 substitutions.
Reduced MIP has 476 rows, 418 columns, and 1411 nonzeros.
Reduced MIP has 270 binaries, 131 generals, 0 SOSs, and 224 indicators.
Presolve time = 0.00 sec. (1.04 ticks)
Probing time = 0.00 sec. (1.52 ticks)
Tried aggregator 1 time.
Reduced MIP has 476 rows, 418 columns, and 1411 nonzeros.
Reduced MIP has 270 binaries, 131 generals, 0 SOSs, and 224 indicators.
Presolve time = 0.00 sec. (0.67 ticks)
Represolve time = 0.04 sec. (13.13 ticks)
Probing time = 0.00 sec. (1.53 ticks)
Clique table members: 463.
MIP emphasis: balance optimality and feasibility.
MIP search method: dynamic search.
Parallel mode: deterministic, using up to 4 threads.
Root relaxation solution time = 0.00 sec. (1.96 ticks)

        Nodes                                         Cuts/
   Node  Left     Objective  IInf  Best Integer    Best Bound    ItCnt     Gap

*     0+    0                            6.0000        5.0000      650   16.67%
      0     0        5.0000   177        6.0000        5.0000      650   16.67%
      0     0        5.0000    63        6.0000      Cuts: 37      686   16.67%
      0     0        5.0000    65        6.0000      Cuts: 77      722   16.67%
      0     0        5.0000    64        6.0000      Cuts: 16      733   16.67%
      0     2        5.0000    64        6.0000        5.0000      733   16.67%
Elapsed time = 0.46 sec. (157.04 ticks, tree = 0.01 MB, solutions = 2)
*   312+   98                            5.0000        5.0000     3109    0.00%

Clique cuts applied:  19
Cover cuts applied:  5
Implied bound cuts applied:  100
Flow cuts applied:  2
Mixed integer rounding cuts applied:  6
Zero-half cuts applied:  14
Lift and project cuts applied:  4
Gomory fractional cuts applied:  19

Root node processing (before b&c):
  Real time             =    0.46 sec. (156.80 ticks)
Parallel b&c, 4 threads:
  Real time             =    0.09 sec. (36.61 ticks)
  Sync time (average)   =    0.02 sec.
  Wait time (average)   =    0.00 sec.
                          ------------
Total (root+branch&cut) =    0.55 sec. (193.41 ticks)
